(set-logic SLIA)
(define-fun func0  ((A String) (B Int) ) String (str.substr A  0  B ))
(define-fun func1  ((A String) (B String) (C Int) ) String (str.substr A  0  (str.indexof A  B  C )))
(define-fun func2  ((A String) (B String) ) String (str.substr A  0  (str.indexof A  B  0 )))
(define-fun func3  ((A String) (B String) ) String (str.substr A  0  (str.indexof A  B  1 )))
(define-fun func4  ((A String) (B String) (C String) (D Int) ) String (str.substr A  0  (str.indexof B  C  D )))
(define-fun func5  ((A String) (B String) (C String) ) String (str.substr A  0  (str.indexof B  C  0 )))
(define-fun func6  ((A String) (B String) (C String) ) String (str.substr A  0  (str.indexof B  C  1 )))
(define-fun func7  ((A String) (B Int) ) String (str.substr A  (+ 3  5 ) B ))
(define-fun func8  ((A String) (B Int) (C Int) ) String (str.substr A  (+ 3  C ) B ))
(define-fun func9  ((A String) (B Int) (C Int) ) String (str.substr A  (+ C  5 ) B ))
(define-fun func10  ((A String) (B Int) (C Int) (D Int) ) String (str.substr A  (+ C  D ) B ))
(define-fun func11  ((A String) (B Int) (C Int) ) String (str.substr A  (+ B  C ) 3 ))
(define-fun func12  ((A String) ) String (str.substr A  4  3 ))
(define-fun func13  ((A String) (B Int) ) String (str.substr A  3  B ))
(define-fun func14  ((A String) (B Int) (C Int) ) String (str.substr A  (- (str.len A ) C ) B ))
(define-fun func15  ((A String) (B Int) (C Int) (D String) ) String (str.substr A  (- (str.len D ) C ) B ))
(define-fun func16  ((A String) (B Int) (C String) ) String (str.substr A  (- (str.len C ) 3 ) B ))
(define-fun func17  ((A String) (B Int) (C Int) ) String (str.substr A  (- C  3 ) B ))
(define-fun func18  ((A String) (B Int) (C Int) (D Int) ) String (str.substr A  (- C  D ) B ))
(define-fun func19  ((A String) (B Int) (C Int) ) String (str.substr A  (- B  C ) 3 ))
(define-fun func20  ((A String) (B Int) (C String) (D Int) ) String (str.substr A  B  (str.indexof A  C  D )))
(define-fun func21  ((A String) (B Int) (C String) ) String (str.substr A  B  (str.indexof A  C  0 )))
(define-fun func22  ((A String) (B Int) (C String) ) String (str.substr A  B  (str.indexof A  C  1 )))
(define-fun func23  ((A String) (B Int) (C String) (D String) (E Int) ) String (str.substr A  B  (str.indexof C  D  E )))
(define-fun func24  ((A String) (B Int) (C String) (D String) ) String (str.substr A  B  (str.indexof C  D  0 )))
(define-fun func25  ((A String) (B Int) (C String) (D String) ) String (str.substr A  B  (str.indexof C  D  1 )))
(define-fun func26  ((A String) (B Int) ) String (str.substr A  B  3 ))
(define-fun func27  ((A String) (B Int) ) String (str.substr A  B  (str.len A )))
(define-fun func28  ((A String) (B Int) (C String) ) String (str.substr A  B  (str.len C )))
(define-fun func30  ((A Int) (B String) (C String) (D Int) ) Int (+ A  (str.indexof B  C  D )))
(define-fun func31  ((A Int) ) Int (+ A  5 ))
(define-fun func32  ((A String) (B String) ) Int (str.indexof A  B  0 ))
(define-fun func33  ((A String) (B String) ) Int (str.indexof A  B  1 ))
(define-fun func34  ((A String) (B String) (C String) ) String (str.++ A  (str.++ B  C )))
(define-fun func35  ((A String) (B String) (C String) (D String) ) String (str.++ A  (str.++ B  (str.++ C  D ))))
(define-fun func36  ((A String) (B String) (C String) (D String) (E Int) ) String (str.++ A  (str.++ B  (str.++ (str.at D  E ) C ))))
(define-fun func37  ((A String) (B String) (C String) (D Int) ) String (str.++ A  (str.++ (str.at C  D ) B )))
(define-fun func38  ((A String) (B String) (C String) (D String) (E String) ) String (str.++ A  (str.replace B  C  (str.++ D  E ))))
(define-fun func39  ((A String) (B String) (C Int) ) String (str.++ (str.at B  C ) A ))
(define-fun func40  ((A String) (B String) ) String (str.++ (str.at B  0 ) A ))
(define-fun func41  ((A String) (B Int) (C String) (D String) (E String) ) String (str.++ (str.at A  B ) (str.++ C  (str.++ D  E ))))
(define-fun func42  ((A String) ) String (str.at A  0 ))
(define-fun func43  ((A String) (B String) (C String) (D String) ) String (str.replace A  B  (str.++ C  D )))
(define-fun func44  ((A String) (B String) (C String) (D String) (E String) ) String (str.replace (str.replace C  D  E ) A  B ))
(define-fun func45  ((A Int) (B String) ) Int (- (str.len B ) A ))
(define-fun func46  ((A String) ) Int (- (str.len A ) 3 ))
(define-fun func47  ((A Int) ) Int (- A  3 ))
(synth-fun f ((_arg_0 String)) Bool
( (Start Bool (ntBool))
 (ntString String (
	_arg_0 "" " " "overhead" "some project" "other" "boo" "," 
	(func0 ntString ntInt)
	(func1 ntString ntString ntInt)
	(func4 ntString ntString ntString ntInt)
	(func5 ntString ntString ntString)
	(func7 ntString ntInt)
	(func9 ntString ntInt ntInt)
	(func10 ntString ntInt ntInt ntInt)
	(func11 ntString ntInt ntInt)
	(func12 ntString)
	(func17 ntString ntInt ntInt)
	(func18 ntString ntInt ntInt ntInt)
	(func20 ntString ntInt ntString ntInt)
	(func21 ntString ntInt ntString)
	(func24 ntString ntInt ntString ntString)
	(func25 ntString ntInt ntString ntString)
	(func28 ntString ntInt ntString)
	(func36 ntString ntString ntString ntString ntInt)
	(func37 ntString ntString ntString ntInt)
	(func38 ntString ntString ntString ntString ntString)
	(func41 ntString ntInt ntString ntString ntString)
	(func44 ntString ntString ntString ntString ntString)
	(str.++ ntString ntString)
	(str.replace ntString ntString ntString)
	(str.at ntString ntInt)
	(ite ntBool ntString ntString)
	(str.substr ntString ntInt ntInt)
))
 (ntInt Int (
	1 0 -1 
	(func31 ntInt)
	(func33 ntString ntString)
	(func45 ntInt ntString)
	(func46 ntString)
	(str.len ntString)
	(str.to.int ntString)
	(ite ntBool ntInt ntInt)
	(str.indexof ntString ntString ntInt)
))
 (ntBool Bool (
	true false
	(str.prefixof ntString ntString)
	(str.suffixof ntString ntString)
	(str.contains ntString ntString)
))
))
(constraint (= (f "some project,other project") true))
(constraint (= (f "some project") true))
(constraint (= (f "overhead") false))
(constraint (= (f "some project, overhead") false))
(constraint (= (f "some project, other, boo") true))
(check-synth)
